c File: instances/30_0.25_1.col
c
c Description: Random graph of size 30 vertices and P(0.25) of edges between any two vertices.
p col 30 435
e 1 3
e 1 8
e 1 10
e 1 14
e 1 16
e 1 19
e 1 20
e 1 21
e 1 24
e 2 10
e 2 11
e 2 28
e 3 8
e 3 10
e 3 15
e 3 16
e 3 25
e 4 5
e 4 8
e 4 9
e 4 11
e 4 15
e 4 18
e 4 19
e 4 22
e 4 28
e 4 29
e 5 8
e 5 9
e 5 14
e 5 15
e 5 19
e 5 25
e 6 8
e 6 9
e 6 12
e 6 20
e 6 22
e 6 23
e 6 30
e 7 8
e 7 14
e 7 17
e 7 20
e 8 12
e 8 16
e 8 18
e 8 20
e 8 22
e 8 23
e 8 25
e 8 26
e 9 14
e 9 15
e 9 16
e 9 19
e 9 22
e 9 24
e 9 26
e 10 12
e 10 14
e 10 25
e 10 26
e 10 28
e 10 29
e 11 12
e 11 13
e 11 14
e 11 16
e 11 18
e 11 19
e 12 15
e 12 16
e 12 17
e 12 18
e 12 24
e 12 26
e 13 14
e 13 15
e 13 16
e 13 17
e 13 21
e 13 28
e 13 29
e 15 18
e 15 20
e 15 22
e 15 26
e 15 29
e 16 18
e 16 20
e 16 22
e 16 23
e 16 26
e 17 28
e 17 29
e 18 24
e 18 29
e 19 22
e 19 23
e 19 24
e 19 26
e 20 21
e 20 22
e 20 23
e 20 24
e 20 26
e 20 27
e 20 28
e 21 25
e 21 28
e 21 29
e 23 25
e 23 26
e 23 29
e 23 30
e 24 25
e 24 26
e 26 27
e 26 29
e 26 30
e 28 29
e 28 30